50
1 0 13
2 0 13
2 1 1
3 0 9
3 1 20
3 2 17
4 0 5
4 1 6
4 2 9
4 3 2
5 0 1
5 1 13
5 2 15
5 3 14
5 4 5
6 0 20
6 1 6
6 2 20
6 3 20
6 4 10
6 5 14
7 0 18
7 1 12
7 2 4
7 3 10
7 4 14
7 5 12
7 6 6
8 0 1
8 1 16
8 2 20
8 3 12
8 4 1
8 5 16
8 6 6
8 7 17
9 0 6
9 1 3
9 2 7
9 3 18
9 4 20
9 5 3
9 6 20
9 7 8
9 8 17
10 0 1
10 1 2
10 2 15
10 3 18
10 4 4
10 5 1
10 6 16
10 7 11
10 8 3
10 9 10
11 0 2
11 1 4
11 2 19
11 3 5
11 4 16
11 5 3
11 6 12
11 7 19
11 8 11
11 9 1
11 10 12
12 0 3
12 1 18
12 2 8
12 3 17
12 4 4
12 5 5
12 6 14
12 7 18
12 8 14
12 9 7
12 10 2
12 11 2
13 0 10
13 1 15
13 2 12
13 3 2
13 4 18
13 5 1
13 6 17
13 7 14
13 8 17
13 9 14
13 10 16
13 11 5
13 12 13
14 0 17
14 1 1
14 2 9
14 3 18
14 4 18
14 5 5
14 6 3
14 7 20
14 8 20
14 9 20
14 10 5
14 11 4
14 12 14
14 13 11
15 0 1
15 1 9
15 2 19
15 3 12
15 4 7
15 5 3
15 6 13
15 7 5
15 8 13
15 9 12
15 10 13
15 11 6
15 12 14
15 13 19
15 14 5
16 0 14
16 1 11
16 2 15
16 3 8
16 4 7
16 5 3
16 6 10
16 7 5
16 8 15
16 9 1
16 10 19
16 11 5
16 12 6
16 13 6
16 14 8
16 15 1
17 0 9
17 1 7
17 2 4
17 3 14
17 4 3
17 5 20
17 6 13
17 7 9
17 8 4
17 9 1
17 10 15
17 11 8
17 12 6
17 13 6
17 14 9
17 15 6
17 16 11
18 0 4
18 1 18
18 2 13
18 3 11
18 4 7
18 5 4
18 6 7
18 7 5
18 8 17
18 9 8
18 10 6
18 11 11
18 12 15
18 13 17
18 14 3
18 15 14
18 16 11
18 17 18
19 0 7
19 1 10
19 2 11
19 3 17
19 4 2
19 5 15
19 6 14
19 7 18
19 8 12
19 9 9
19 10 19
19 11 13
19 12 11
19 13 8
19 14 20
19 15 3
19 16 12
19 17 8
19 18 15
20 0 7
20 1 1
20 2 17
20 3 12
20 4 8
20 5 4
20 6 6
20 7 19
20 8 20
20 9 17
20 10 9
20 11 4
20 12 3
20 13 7
20 14 20
20 15 18
20 16 12
20 17 16
20 18 14
20 19 1
21 0 17
21 1 3
21 2 18
21 3 4
21 4 1
21 5 13
21 6 9
21 7 19
21 8 15
21 9 6
21 10 6
21 11 12
21 12 16
21 13 4
21 14 2
21 15 16
21 16 18
21 17 7
21 18 17
21 19 14
21 20 4
22 0 1
22 1 19
22 2 12
22 3 6
22 4 2
22 5 16
22 6 4
22 7 16
22 8 12
22 9 12
22 10 12
22 11 2
22 12 19
22 13 15
22 14 7
22 15 12
22 16 3
22 17 5
22 18 7
22 19 12
22 20 10
22 21 15
23 0 1
23 1 8
23 2 11
23 3 12
23 4 11
23 5 7
23 6 9
23 7 15
23 8 6
23 9 18
23 10 11
23 11 2
23 12 12
23 13 19
23 14 15
23 15 5
23 16 12
23 17 17
23 18 8
23 19 2
23 20 12
23 21 9
23 22 9
24 0 10
24 1 16
24 2 4
24 3 11
24 4 2
24 5 12
24 6 9
24 7 12
24 8 14
24 9 14
24 10 4
24 11 12
24 12 6
24 13 4
24 14 2
24 15 8
24 16 1
24 17 6
24 18 6
24 19 18
24 20 17
24 21 17
24 22 9
24 23 2
25 0 10
25 1 9
25 2 6
25 3 17
25 4 13
25 5 4
25 6 1
25 7 20
25 8 8
25 9 12
25 10 3
25 11 18
25 12 14
25 13 19
25 14 11
25 15 15
25 16 20
25 17 16
25 18 18
25 19 13
25 20 1
25 21 5
25 22 12
25 23 3
25 24 17
26 0 10
26 1 12
26 2 7
26 3 10
26 4 4
26 5 6
26 6 7
26 7 15
26 8 19
26 9 20
26 10 6
26 11 10
26 12 3
26 13 3
26 14 1
26 15 19
26 16 10
26 17 8
26 18 2
26 19 2
26 20 16
26 21 18
26 22 9
26 23 17
26 24 16
26 25 8
27 0 12
27 1 17
27 2 10
27 3 3
27 4 11
27 5 12
27 6 17
27 7 9
27 8 14
27 9 5
27 10 2
27 11 8
27 12 8
27 13 14
27 14 6
27 15 13
27 16 13
27 17 12
27 18 17
27 19 5
27 20 19
27 21 6
27 22 16
27 23 4
27 24 9
27 25 11
27 26 5
28 0 14
28 1 14
28 2 1
28 3 14
28 4 2
28 5 18
28 6 7
28 7 14
28 8 17
28 9 11
28 10 13
28 11 6
28 12 9
28 13 7
28 14 7
28 15 2
28 16 12
28 17 7
28 18 20
28 19 7
28 20 3
28 21 6
28 22 8
28 23 4
28 24 13
28 25 19
28 26 8
28 27 9
29 0 5
29 1 16
29 2 14
29 3 3
29 4 17
29 5 15
29 6 12
29 7 10
29 8 3
29 9 6
29 10 6
29 11 12
29 12 10
29 13 12
29 14 7
29 15 16
29 16 5
29 17 20
29 18 18
29 19 1
29 20 1
29 21 12
29 22 10
29 23 12
29 24 20
29 25 1
29 26 17
29 27 10
29 28 16
30 0 2
30 1 16
30 2 11
30 3 4
30 4 5
30 5 1
30 6 20
30 7 3
30 8 4
30 9 18
30 10 10
30 11 6
30 12 2
30 13 14
30 14 17
30 15 14
30 16 3
30 17 18
30 18 2
30 19 8
30 20 16
30 21 18
30 22 16
30 23 13
30 24 17
30 25 16
30 26 5
30 27 14
30 28 20
30 29 9
31 0 8
31 1 16
31 2 18
31 3 16
31 4 15
31 5 3
31 6 7
31 7 5
31 8 16
31 9 18
31 10 13
31 11 7
31 12 18
31 13 14
31 14 12
31 15 13
31 16 15
31 17 4
31 18 2
31 19 8
31 20 15
31 21 9
31 22 18
31 23 18
31 24 6
31 25 9
31 26 13
31 27 14
31 28 18
31 29 5
31 30 7
32 0 14
32 1 15
32 2 11
32 3 13
32 4 18
32 5 15
32 6 18
32 7 12
32 8 14
32 9 2
32 10 3
32 11 17
32 12 15
32 13 20
32 14 19
32 15 10
32 16 5
32 17 7
32 18 11
32 19 16
32 20 7
32 21 20
32 22 6
32 23 17
32 24 4
32 25 6
32 26 19
32 27 16
32 28 9
32 29 10
32 30 8
32 31 9
33 0 12
33 1 11
33 2 11
33 3 20
33 4 6
33 5 9
33 6 11
33 7 16
33 8 16
33 9 13
33 10 6
33 11 8
33 12 8
33 13 14
33 14 18
33 15 8
33 16 9
33 17 7
33 18 9
33 19 5
33 20 3
33 21 11
33 22 19
33 23 1
33 24 7
33 25 10
33 26 13
33 27 16
33 28 6
33 29 9
33 30 4
33 31 16
33 32 19
34 0 16
34 1 19
34 2 18
34 3 4
34 4 14
34 5 14
34 6 12
34 7 10
34 8 13
34 9 6
34 10 15
34 11 19
34 12 19
34 13 12
34 14 18
34 15 2
34 16 18
34 17 19
34 18 10
34 19 8
34 20 14
34 21 11
34 22 18
34 23 14
34 24 3
34 25 8
34 26 1
34 27 14
34 28 3
34 29 6
34 30 12
34 31 20
34 32 8
34 33 4
35 0 15
35 1 4
35 2 8
35 3 19
35 4 11
35 5 9
35 6 6
35 7 4
35 8 5
35 9 11
35 10 2
35 11 5
35 12 10
35 13 14
35 14 8
35 15 2
35 16 2
35 17 8
35 18 20
35 19 20
35 20 13
35 21 11
35 22 4
35 23 15
35 24 14
35 25 1
35 26 7
35 27 10
35 28 1
35 29 8
35 30 5
35 31 3
35 32 1
35 33 15
35 34 3
36 0 6
36 1 1
36 2 15
36 3 20
36 4 10
36 5 15
36 6 4
36 7 4
36 8 18
36 9 8
36 10 10
36 11 15
36 12 4
36 13 10
36 14 8
36 15 10
36 16 7
36 17 6
36 18 14
36 19 3
36 20 9
36 21 7
36 22 15
36 23 12
36 24 19
36 25 19
36 26 3
36 27 17
36 28 19
36 29 8
36 30 13
36 31 9
36 32 14
36 33 4
36 34 1
36 35 2
37 0 10
37 1 14
37 2 8
37 3 14
37 4 15
37 5 11
37 6 1
37 7 20
37 8 5
37 9 7
37 10 3
37 11 5
37 12 2
37 13 10
37 14 17
37 15 18
37 16 17
37 17 6
37 18 15
37 19 10
37 20 13
37 21 16
37 22 10
37 23 9
37 24 19
37 25 6
37 26 5
37 27 5
37 28 2
37 29 14
37 30 3
37 31 15
37 32 18
37 33 2
37 34 5
37 35 11
37 36 11
38 0 10
38 1 11
38 2 5
38 3 10
38 4 5
38 5 7
38 6 9
38 7 13
38 8 9
38 9 19
38 10 14
38 11 4
38 12 4
38 13 3
38 14 8
38 15 1
38 16 13
38 17 14
38 18 17
38 19 8
38 20 8
38 21 1
38 22 5
38 23 4
38 24 15
38 25 7
38 26 20
38 27 18
38 28 6
38 29 3
38 30 16
38 31 2
38 32 6
38 33 9
38 34 14
38 35 10
38 36 11
38 37 18
39 0 8
39 1 16
39 2 17
39 3 15
39 4 2
39 5 3
39 6 1
39 7 4
39 8 9
39 9 1
39 10 20
39 11 7
39 12 6
39 13 16
39 14 18
39 15 19
39 16 10
39 17 14
39 18 20
39 19 16
39 20 12
39 21 18
39 22 18
39 23 1
39 24 17
39 25 9
39 26 6
39 27 10
39 28 9
39 29 20
39 30 10
39 31 6
39 32 4
39 33 1
39 34 15
39 35 20
39 36 14
39 37 3
39 38 1
40 0 20
40 1 9
40 2 15
40 3 13
40 4 14
40 5 10
40 6 4
40 7 17
40 8 16
40 9 8
40 10 16
40 11 8
40 12 1
40 13 16
40 14 17
40 15 15
40 16 17
40 17 2
40 18 12
40 19 6
40 20 9
40 21 8
40 22 17
40 23 19
40 24 5
40 25 17
40 26 20
40 27 11
40 28 20
40 29 5
40 30 16
40 31 12
40 32 18
40 33 14
40 34 16
40 35 14
40 36 20
40 37 6
40 38 16
40 39 19
41 0 13
41 1 15
41 2 8
41 3 4
41 4 4
41 5 10
41 6 7
41 7 14
41 8 17
41 9 20
41 10 11
41 11 3
41 12 9
41 13 4
41 14 16
41 15 5
41 16 18
41 17 1
41 18 18
41 19 15
41 20 19
41 21 9
41 22 7
41 23 3
41 24 16
41 25 19
41 26 12
41 27 9
41 28 5
41 29 18
41 30 3
41 31 7
41 32 7
41 33 8
41 34 16
41 35 14
41 36 13
41 37 18
41 38 11
41 39 15
41 40 2
42 0 18
42 1 1
42 2 1
42 3 4
42 4 4
42 5 13
42 6 8
42 7 5
42 8 2
42 9 17
42 10 1
42 11 7
42 12 15
42 13 1
42 14 2
42 15 12
42 16 7
42 17 20
42 18 5
42 19 4
42 20 10
42 21 14
42 22 14
42 23 16
42 24 7
42 25 18
42 26 8
42 27 4
42 28 12
42 29 4
42 30 15
42 31 18
42 32 18
42 33 16
42 34 19
42 35 13
42 36 5
42 37 17
42 38 14
42 39 14
42 40 17
42 41 7
43 0 1
43 1 9
43 2 12
43 3 11
43 4 14
43 5 11
43 6 6
43 7 8
43 8 7
43 9 18
43 10 6
43 11 4
43 12 19
43 13 6
43 14 12
43 15 11
43 16 12
43 17 12
43 18 9
43 19 3
43 20 6
43 21 4
43 22 19
43 23 19
43 24 19
43 25 4
43 26 14
43 27 14
43 28 14
43 29 6
43 30 14
43 31 13
43 32 7
43 33 13
43 34 19
43 35 4
43 36 20
43 37 15
43 38 8
43 39 10
43 40 20
43 41 6
43 42 10
44 0 20
44 1 7
44 2 5
44 3 20
44 4 6
44 5 10
44 6 19
44 7 7
44 8 15
44 9 17
44 10 18
44 11 9
44 12 8
44 13 18
44 14 5
44 15 4
44 16 1
44 17 5
44 18 3
44 19 6
44 20 4
44 21 5
44 22 18
44 23 9
44 24 16
44 25 15
44 26 11
44 27 5
44 28 8
44 29 4
44 30 8
44 31 20
44 32 11
44 33 4
44 34 4
44 35 5
44 36 6
44 37 3
44 38 3
44 39 7
44 40 8
44 41 7
44 42 5
44 43 10
45 0 7
45 1 9
45 2 10
45 3 14
45 4 5
45 5 6
45 6 19
45 7 10
45 8 19
45 9 18
45 10 1
45 11 3
45 12 11
45 13 3
45 14 17
45 15 10
45 16 2
45 17 13
45 18 13
45 19 10
45 20 16
45 21 19
45 22 11
45 23 16
45 24 5
45 25 3
45 26 3
45 27 6
45 28 13
45 29 9
45 30 9
45 31 12
45 32 11
45 33 15
45 34 9
45 35 8
45 36 3
45 37 14
45 38 7
45 39 10
45 40 18
45 41 19
45 42 6
45 43 12
45 44 16
46 0 2
46 1 13
46 2 13
46 3 1
46 4 12
46 5 12
46 6 7
46 7 10
46 8 1
46 9 15
46 10 12
46 11 6
46 12 17
46 13 11
46 14 2
46 15 19
46 16 2
46 17 19
46 18 9
46 19 18
46 20 15
46 21 14
46 22 9
46 23 19
46 24 6
46 25 5
46 26 9
46 27 10
46 28 15
46 29 13
46 30 12
46 31 8
46 32 14
46 33 7
46 34 3
46 35 7
46 36 19
46 37 3
46 38 8
46 39 16
46 40 15
46 41 17
46 42 5
46 43 17
46 44 18
46 45 15
47 0 5
47 1 15
47 2 13
47 3 13
47 4 5
47 5 12
47 6 13
47 7 9
47 8 2
47 9 19
47 10 17
47 11 8
47 12 9
47 13 16
47 14 19
47 15 5
47 16 4
47 17 18
47 18 10
47 19 4
47 20 18
47 21 5
47 22 17
47 23 17
47 24 18
47 25 10
47 26 3
47 27 14
47 28 13
47 29 15
47 30 10
47 31 15
47 32 20
47 33 4
47 34 14
47 35 13
47 36 2
47 37 17
47 38 2
47 39 18
47 40 9
47 41 15
47 42 14
47 43 10
47 44 11
47 45 6
47 46 12
48 0 16
48 1 12
48 2 3
48 3 5
48 4 13
48 5 12
48 6 13
48 7 18
48 8 11
48 9 10
48 10 9
48 11 18
48 12 14
48 13 4
48 14 15
48 15 20
48 16 3
48 17 3
48 18 4
48 19 1
48 20 10
48 21 8
48 22 20
48 23 1
48 24 10
48 25 7
48 26 19
48 27 19
48 28 20
48 29 11
48 30 17
48 31 20
48 32 19
48 33 18
48 34 15
48 35 13
48 36 16
48 37 7
48 38 6
48 39 17
48 40 12
48 41 3
48 42 3
48 43 7
48 44 17
48 45 7
48 46 17
48 47 2
49 0 15
49 1 20
49 2 6
49 3 12
49 4 11
49 5 7
49 6 1
49 7 13
49 8 13
49 9 10
49 10 4
49 11 3
49 12 5
49 13 1
49 14 11
49 15 12
49 16 18
49 17 5
49 18 5
49 19 13
49 20 19
49 21 17
49 22 8
49 23 12
49 24 7
49 25 17
49 26 17
49 27 9
49 28 8
49 29 19
49 30 19
49 31 10
49 32 1
49 33 5
49 34 10
49 35 1
49 36 9
49 37 1
49 38 4
49 39 1
49 40 16
49 41 2
49 42 16
49 43 7
49 44 18
49 45 1
49 46 16
49 47 18
49 48 7
